Set parameter TSPort to value 51199
Set parameter TokenServer to value "open-license1.lanl.gov"
Set parameter TimeLimit to value 2048
Set parameter Threads to value 1
Gurobi Optimizer version 10.0.3 build v10.0.3rc0 (linux64)

CPU model: Intel(R) Xeon(R) CPU E5-2695 v4 @ 2.10GHz, instruction set [SSE2|AVX|AVX2]
Thread count: 36 physical cores, 72 logical processors, using up to 1 threads

Optimize a model with 0 rows, 1940 columns and 0 nonzeros
Model fingerprint: 0xaeeaf6ff
Model has 8688 quadratic objective terms
Variable types: 0 continuous, 1940 integer (1940 binary)
Coefficient statistics:
  Matrix range     [0e+00, 0e+00]
  Objective range  [2e+00, 3e+01]
  QObjective range [8e+00, 8e+00]
  Bounds range     [1e+00, 1e+00]
  RHS range        [0e+00, 0e+00]
Found heuristic solution: objective 0.0000000
Found heuristic solution: objective -3244.000000
Found heuristic solution: objective -11664.00000
Found heuristic solution: objective -11694.00000
Presolve removed 0 rows and 1 columns
Presolve time: 0.40s
Presolved: 8687 rows, 10626 columns, 26061 nonzeros
Variable types: 0 continuous, 10626 integer (10626 binary)

Root relaxation: objective -1.615000e+04, 2762 iterations, 0.04 seconds (0.02 work units)

    Nodes    |    Current Node    |     Objective Bounds      |     Work
 Expl Unexpl |  Obj  Depth IntInf | Incumbent    BestBd   Gap | It/Node Time

     0     0 -16150.000    0 1939 -11694.000 -16150.000  38.1%     -    0s
     0     0 -15043.000    0 2494 -11694.000 -15043.000  28.6%     -    1s
     0     0 -14942.000    0 2550 -11694.000 -14942.000  27.8%     -    1s
     0     0 -14941.000    0 2550 -11694.000 -14941.000  27.8%     -    1s
     0     0 -14654.000    0 2748 -11694.000 -14654.000  25.3%     -    1s
     0     0 -14654.000    0 2718 -11694.000 -14654.000  25.3%     -    2s
     0     2 -14654.000    0 2715 -11694.000 -14654.000  25.3%     -    2s
   125   127 -14115.500   63 3138 -11694.000 -14642.000  25.2%   129    5s
   490   492 -12781.333  245 3635 -11694.000 -14642.000  25.2%  88.0   10s
   783   785 -12027.500  393 3595 -11694.000 -14642.000  25.2%  75.8   15s
   971   953 -11832.000  441 4344 -11694.000 -14642.000  25.2%  68.2   20s
   979   958 -12318.000  332 3382 -11694.000 -13976.599  19.5%  67.6   25s
   983   961 -12460.000  306 4043 -11694.000 -13681.219  17.0%  67.3   34s
   984   962 -12031.500  393 4164 -11694.000 -13629.440  16.6%  67.3   42s
   986   963 -12236.000  346 4333 -11694.000 -13614.549  16.4%  67.1   46s
   993   968 -11812.000  446 4802 -11694.000 -13392.709  14.5%  66.7   81s
   994   968 -13352.754  101 5129 -11694.000 -13352.754  14.2%  66.6  101s
   995   969 -11760.000  461 5297 -11694.000 -13343.358  14.1%  66.5  111s
   996   970 -13338.555  132 5403 -11694.000 -13338.555  14.1%  66.5  115s
   999   972 -13336.330  110 5506 -11694.000 -13336.330  14.0%  66.3  120s
  1006   976 -12694.333  262 5917 -11694.000 -13185.848  12.8%  65.8  174s
  1007   977 -12648.333  270 6258 -11694.000 -13152.407  12.5%  65.7  208s
  1008   978 -11855.500  435 6353 -11694.000 -13146.406  12.4%  65.7  218s
  1009   978 -12607.000  277 6428 -11694.000 -13143.193  12.4%  65.6  225s
  1011   980 -13141.970   27 6469 -11694.000 -13141.970  12.4%  65.5  230s
  1018   984 -13141.620   40 6571 -11694.000 -13141.620  12.4%  65.0  235s
  1019   985 -13032.574  166 7002 -11694.000 -13032.574  11.4%  65.0  304s
  1020   986 -12888.333  229 7203 -11694.000 -13009.091  11.2%  64.9  341s
  1021   986 -12209.500  351 7369 -11694.000 -13002.924  11.2%  64.8  357s
  1022   987 -12060.500  387 7425 -11694.000 -13001.029  11.2%  64.8  365s
  1023   988 -11999.500  398 7482 -11694.000 -13000.265  11.2%  64.7  370s
  1025   989 -12836.333  237 7498 -11694.000 -12999.297  11.2%  64.6  376s
  1030   992 -12802.333  242 7568 -11694.000 -12999.111  11.2%  64.3  381s
  1031   993 -12918.659  137 7756 -11694.000 -12918.659  10.5%  64.2  459s
  1032   994 -12900.240   25 8002 -11694.000 -12900.240  10.3%  64.1  511s
  1033   994 -12895.104  117 8130 -11694.000 -12895.104  10.3%  64.1  531s
  1034   995 -11873.000  430 8192 -11694.000 -12893.708  10.3%  64.0  539s
  1035   996 -12893.463  148 8222 -11694.000 -12893.463  10.3%  64.0  542s
  1037   997 -12893.289   25 8211 -11694.000 -12893.289  10.3%  63.8  545s
  1041  1000 -11708.000  481 8243 -11694.000 -12848.850  9.88%  63.6  617s
  1042  1000 -12060.500  387 8424 -11694.000 -12840.085  9.80%  63.5  655s
  1043  1001 -12157.500  363 8425 -11694.000 -12838.337  9.79%  63.5  667s
  1044  1002 -12837.765   59 8449 -11694.000 -12837.765  9.78%  63.4  674s
  1045  1002 -12837.630  151 8521 -11694.000 -12837.630  9.78%  63.4  676s
  1049  1005 -12243.000  345 8553 -11694.000 -12837.551  9.78%  63.1  680s
  1050  1006 -12799.573  176 8671 -11694.000 -12799.573  9.45%  63.0  751s
  1051  1006 -12793.670   48 8750 -11694.000 -12793.670  9.40%  63.0  782s
  1052  1007 -12792.459  127 8766 -11694.000 -12792.459  9.39%  62.9  795s
  1054  1008 -12791.902  195 8846 -11694.000 -12791.902  9.39%  62.8  803s
  1055  1009 -12540.000  289 8822 -11694.000 -12791.855  9.39%  62.7  805s
  1058  1011 -12765.240  150 8782 -11694.000 -12765.240  9.16%  62.6  869s
  1059  1012 -11817.000  445 8863 -11694.000 -12760.415  9.12%  62.5  898s
  1060  1012 -12759.446  183 8891 -11694.000 -12759.446  9.11%  62.5  911s
  1061  1013 -12531.000  294 8933 -11694.000 -12759.225  9.11%  62.4  915s
  1065  1016 -12759.112   54 8966 -11694.000 -12759.112  9.11%  62.2  922s
  1066  1016 -12270.000  340 8851 -11694.000 -12735.835  8.91%  62.1  979s
  1067  1017 -12431.000  310 8941 -11694.000 -12731.758  8.87%  62.0 1008s
  1068  1018 -11725.000  474 8977 -11694.000 -12730.877  8.87%  62.0 1017s
  1069  1018 -12730.615   25 8995 -11694.000 -12730.615  8.86%  61.9 1022s
  1071  1020 -11832.000  441 9017 -11694.000 -12730.479  8.86%  61.8 1025s
  1075  1022 -12712.743  243 8950 -11694.000 -12712.743  8.71%  61.6 1084s
  1076  1023 -12468.000  305 9035 -11694.000 -12709.084  8.68%  61.5 1109s
  1077  1024 -12612.667  275 9051 -11694.000 -12708.425  8.67%  61.5 1117s
  1078  1024 -12101.500  377 9074 -11694.000 -12708.221  8.67%  61.4 1121s
  1082  1027 -12708.145    4 9114 -11694.000 -12708.145  8.67%  61.2 1126s
  1083  1028 -12460.000  306 8947 -11694.000 -12693.878  8.55%  61.1 1178s
  1084  1028 -12031.500  393 9060 -11694.000 -12690.359  8.52%  61.1 1209s
  1085  1029 -12689.774  238 9111 -11694.000 -12689.774  8.52%  61.0 1216s
  1087  1030 -12689.624  234 9142 -11694.000 -12689.624  8.51%  60.9 1220s
  1090  1032 -12527.000  291 9119 -11694.000 -12680.503  8.44%  60.7 1266s
  1091  1033 -12513.000  297 9166 -11694.000 -12678.609  8.42%  60.7 1283s
  1092  1034 -12367.000  322 9190 -11694.000 -12678.265  8.42%  60.6 1289s
  1093  1034 -11812.000  446 9203 -11694.000 -12678.170  8.42%  60.6 1291s
  1098  1038 -12666.337  240 9131 -11694.000 -12666.337  8.31%  60.3 1345s
  1099  1038 -12664.287  110 9220 -11694.000 -12664.287  8.30%  60.2 1363s
  1100  1039 -11876.000  426 9216 -11694.000 -12663.968  8.29%  60.2 1368s
  1101  1040 -12663.882   18 9226 -11694.000 -12663.882  8.29%  60.1 1371s
  1105  1042 -12653.306  240 9192 -11694.000 -12653.306  8.20%  59.9 1425s
  1106  1043 -12650.603  262 9215 -11694.000 -12650.603  8.18%  59.9 1451s
  1107  1044 -12648.333  270 9244 -11694.000 -12650.127  8.18%  59.8 1457s
  1108  1044 -11855.500  435 9252 -11694.000 -12650.006  8.18%  59.7 1460s
  1112  1047 -12649.933   12 9299 -11694.000 -12649.933  8.17%  59.5 1465s
  1113  1048 -12644.341  181 9214 -11694.000 -12644.341  8.13%  59.5 1498s
  1114  1048 -12642.796  198 9270 -11694.000 -12642.796  8.11%  59.4 1512s
  1115  1049 -12642.289  175 9301 -11694.000 -12642.289  8.11%  59.4 1520s
  1119  1052 -12642.153  166 9338 -11694.000 -12642.153  8.11%  59.2 1525s
  1120  1052 -12636.108  229 9239 -11694.000 -12636.108  8.06%  59.1 1562s
  1121  1053 -12209.500  351 9266 -11694.000 -12634.419  8.04%  59.1 1580s
  1123  1054 -11999.500  398 9336 -11694.000 -12634.085  8.04%  59.0 1587s
  1127  1057 -12626.404   35 9225 -11694.000 -12626.404  7.97%  58.7 1631s
  1128  1058 -11906.000  418 9302 -11694.000 -12625.027  7.96%  58.7 1646s
  1129  1058 -12624.772  220 9319 -11694.000 -12624.772  7.96%  58.6 1651s
  1133  1061 -12624.687  117 9345 -11694.000 -12624.687  7.96%  58.4 1655s
  1134  1062 -11873.000  430 9265 -11694.000 -12618.921  7.91%  58.4 1694s
  1135  1062 -12617.670  148 9359 -11694.000 -12617.670  7.90%  58.3 1709s
  1136  1063 -12318.000  332 9345 -11694.000 -12617.418  7.90%  58.3 1716s
  1139  1065 -11719.000  477 9391 -11694.000 -12617.338  7.90%  58.1 1720s
  1152  1075 -12617.336  127 3250 -11694.000 -12617.336  7.90%  1252 1725s
  1153  1075 -12026.500  394 4334 -11694.000 -12617.336  7.90%  1251 1739s
  1154  1076 -12617.336  195 6022 -11694.000 -12617.336  7.90%  1250 1799s
  1155  1077 -12540.000  289 7986 -11694.000 -12617.336  7.90%  1249 1913s
  1156  1077 -12153.500  364 9017 -11694.000 -12617.336  7.90%  1248 2044s

Cutting planes:
  Gomory: 66
  MIR: 303
  Flow cover: 3197
  Zero half: 1196
  Mod-K: 60
  RLT: 372
  BQP: 508

Explored 1156 nodes (1787699 simplex iterations) in 2048.02 seconds (2753.80 work units)
Thread count was 1 (of 72 available processors)

Solution count 4: -11694 -11664 -3244 0 

Time limit reached
Best objective -1.169400000000e+04, best bound -1.261600000000e+04, gap 7.8844%

User-callback calls 13294, time in user-callback 0.06 sec

BQP_SOLUTION, 1940, 8688, -4232.000000, 2048.015325, 1, -1, 1, -1, 1, -1, 1, 1, -1, 1, 1, -1, 1, 1, 1, 1, -1, 1, 1, 1, -1, 1, 1, -1, -1, 1, 1, 1, -1, 1, 1, -1, 1, -1, 1, 1, 1, -1, -1, 1, -1, -1, 1, -1, -1, -1, 1, -1, 1, -1, -1, 1, 1, 1, -1, 1, -1, 1, -1, -1, 1, 1, 1, 1, -1, -1, 1, -1, -1, 1, -1, 1, 1, -1, -1, -1, -1, 1, -1, 1, 1, 1, 1, -1, 1, -1, 1, 1, -1, 1, 1, 1, -1, -1, 1, -1, -1, -1, 1, 1, -1, -1, -1, -1, 1, -1, -1, 1, 1, -1, -1, 1, -1, 1, -1, 1, 1, 1, 1, -1, 1, -1, 1, -1, 1, 1, 1, -1, -1, 1, 1, 1, -1, 1, 1, 1, -1, -1, 1, 1, 1, -1, -1, 1, 1, -1, -1, 1, -1, 1, -1, -1, 1, 1, -1, 1, 1, 1, -1, -1, -1, 1, -1, -1, 1, -1, -1, 1, -1, 1, 1, 1, -1, -1, -1, 1, -1, -1, 1, 1, -1, 1, -1, -1, 1, 1, 1, -1, 1, -1, 1, -1, -1, -1, 1, -1, 1, 1, -1, -1, 1, -1, 1, -1, -1, 1, -1, -1, 1, -1, 1, -1, 1, -1, 1, 1, -1, -1, 1, -1, -1, -1, 1, -1, 1, -1, -1, -1, 1, 1, -1, 1, 1, -1, -1, -1, -1, -1, 1, -1, -1, 1, 1, -1, 1, -1, -1, 1, -1, 1, 1, -1, -1, 1, -1, -1, 1, 1, 1, 1, -1, 1, -1, -1, -1, 1, -1, 1, 1, 1, -1, -1, -1, -1, 1, 1, -1, 1, 1, -1, -1, -1, -1, 1, -1, 1, 1, 1, 1, -1, -1, -1, 1, -1, 1, 1, 1, -1, -1, -1, 1, 1, -1, 1, -1, -1, 1, -1, -1, -1, 1, -1, 1, 1, 1, -1, -1, -1, 1, 1, -1, 1, -1, -1, 1, -1, -1, 1, -1, 1, -1, 1, -1, -1, 1, -1, 1, 1, -1, 1, 1, 1, -1, 1, -1, 1, 1, -1, 1, -1, 1, 1, 1, 1, -1, 1, -1, -1, 1, 1, 1, 1, -1, -1, -1, -1, 1, 1, 1, 1, 1, -1, -1, 1, 1, -1, 1, 1, 1, 1, -1, 1, 1, 1, 1, 1, 1, 1, 1, 1, -1, 1, 1, 1, 1, 1, -1, 1, 1, -1, 1, 1, -1, 1, 1, 1, 1, 1, -1, -1, 1, -1, 1, 1, -1, 1, 1, -1, -1, 1, -1, 1, 1, 1, 1, 1, -1, -1, 1, 1, -1, 1, 1, 1, -1, -1, 1, 1, -1, 1, 1, 1, 1, 1, 1, -1, 1, -1, 1, 1, 1, 1, -1, 1, 1, 1, -1, -1, 1, 1, 1, -1, -1, 1, 1, -1, 1, -1, 1, 1, 1, -1, 1, 1, -1, 1, 1, 1, 1, 1, -1, 1, 1, -1, -1, -1, 1, 1, -1, -1, 1, -1, 1, -1, -1, 1, -1, 1, -1, 1, 1, -1, -1, -1, 1, 1, 1, -1, 1, 1, -1, -1, 1, -1, -1, 1, -1, -1, 1, 1, -1, -1, -1, 1, -1, 1, 1, 1, -1, 1, -1, -1, 1, -1, -1, 1, 1, -1, 1, -1, -1, -1, -1, 1, 1, -1, 1, -1, -1, 1, 1, -1, -1, 1, 1, -1, -1, -1, 1, -1, -1, -1, 1, 1, -1, -1, 1, -1, 1, -1, 1, 1, -1, 1, -1, -1, 1, -1, -1, -1, 1, 1, -1, -1, -1, -1, -1, -1, -1, 1, 1, -1, -1, -1, -1, -1, -1, -1, 1, -1, -1, -1, -1, -1, -1, -1, -1, 1, -1, 1, -1, -1, -1, -1, -1, -1, 1, 1, -1, -1, -1, -1, -1, -1, -1, 1, 1, -1, -1, -1, -1, -1, 1, -1, 1, 1, 1, -1, -1, 1, -1, -1, -1, 1, 1, -1, -1, -1, -1, -1, -1, 1, 1, 1, -1, -1, -1, -1, -1, 1, 1, 1, -1, -1, -1, -1, 1, -1, -1, 1, -1, -1, -1, -1, 1, -1, -1, -1, 1, 1, 1, -1, -1, 1, -1, 1, -1, -1, 1, -1, -1, -1, 1, -1, -1, 1, 1, 1, 1, -1, 1, 1, -1, 1, -1, -1, 1, -1, 1, 1, 1, -1, -1, 1, 1, 1, 1, -1, 1, 1, 1, -1, -1, 1, -1, -1, -1, 1, 1, 1, -1, -1, -1, 1, 1, 1, -1, 1, 1, 1, -1, -1, 1, 1, -1, 1, -1, 1, -1, -1, 1, 1, 1, -1, 1, 1, 1, -1, 1, -1, 1, -1, 1, 1, 1, -1, 1, 1, 1, 1, 1, -1, 1, 1, -1, 1, 1, 1, -1, 1, 1, 1, -1, -1, 1, 1, 1, -1, -1, 1, 1, -1, -1, 1, 1, 1, 1, -1, 1, 1, 1, 1, 1, -1, 1, -1, 1, 1, 1, -1, -1, 1, 1, 1, -1, -1, 1, 1, 1, -1, 1, 1, 1, -1, -1, 1, -1, 1, -1, -1, 1, -1, 1, -1, 1, 1, 1, -1, 1, 1, 1, -1, -1, 1, 1, 1, -1, 1, 1, 1, -1, -1, -1, 1, 1, -1, 1, 1, 1, -1, -1, 1, 1, -1, -1, 1, 1, 1, -1, -1, -1, 1, -1, -1, 1, 1, -1, -1, -1, 1, -1, -1, 1, 1, 1, -1, 1, -1, -1, -1, -1, -1, 1, -1, 1, -1, -1, -1, 1, -1, -1, -1, 1, 1, -1, -1, -1, 1, -1, -1, -1, 1, 1, -1, -1, -1, -1, -1, 1, -1, 1, 1, -1, 1, -1, -1, -1, -1, -1, 1, 1, -1, -1, -1, 1, 1, -1, 1, -1, 1, -1, -1, -1, -1, -1, -1, -1, 1, 1, -1, -1, -1, -1, -1, 1, -1, 1, 1, -1, -1, 1, 1, -1, -1, 1, -1, 1, -1, 1, -1, 1, 1, 1, -1, 1, 1, -1, -1, -1, -1, 1, 1, -1, 1, 1, -1, -1, 1, -1, 1, 1, -1, 1, 1, -1, -1, 1, -1, 1, -1, -1, 1, 1, -1, -1, -1, -1, 1, -1, -1, 1, -1, -1, 1, -1, 1, 1, -1, 1, 1, -1, -1, 1, 1, 1, 1, -1, 1, 1, -1, -1, 1, 1, -1, 1, -1, 1, 1, -1, -1, 1, 1, -1, 1, 1, 1, 1, -1, -1, 1, 1, -1, 1, -1, -1, 1, 1, -1, -1, -1, -1, 1, 1, -1, -1, 1, -1, 1, -1, -1, 1, -1, -1, 1, 1, -1, 1, 1, 1, -1, -1, 1, 1, -1, -1, 1, 1, 1, 1, -1, 1, -1, -1, 1, 1, 1, 1, -1, -1, -1, 1, -1, 1, 1, 1, -1, -1, -1, 1, 1, 1, 1, 1, 1, 1, 1, -1, -1, 1, -1, 1, 1, -1, 1, 1, 1, -1, 1, 1, 1, 1, 1, 1, 1, -1, -1, 1, -1, 1, 1, 1, 1, 1, -1, -1, 1, 1, 1, 1, 1, 1, 1, 1, -1, -1, 1, 1, 1, 1, 1, -1, 1, -1, 1, 1, 1, 1, 1, 1, 1, 1, -1, -1, 1, -1, 1, 1, 1, 1, -1, -1, 1, 1, 1, 1, 1, 1, 1, -1, 1, 1, 1, 1, 1, 1, -1, 1, -1, 1, 1, -1, 1, -1, 1, 1, 1, -1, 1, 1, 1, 1, -1, 1, -1, 1, -1, 1, 1, 1, 1, 1, -1, 1, -1, 1, 1, -1, 1, -1, 1, 1, 1, -1, -1, 1, 1, -1, 1, 1, 1, 1, -1, -1, 1, 1, 1, -1, 1, 1, 1, -1, 1, 1, 1, -1, 1, 1, 1, 1, 1, -1, 1, 1, 1, -1, 1, 1, 1, 1, 1, 1, 1, 1, 1, -1, 1, 1, 1, -1, 1, 1, -1, 1, -1, 1, 1, 1, -1, 1, 1, -1, 1, 1, 1, 1, -1, 1, 1, 1, -1, 1, 1, 1, -1, -1, 1, 1, 1, 1, 1, -1, 1, 1, -1, 1, 1, 1, -1, -1, -1, 1, 1, -1, 1, -1, 1, -1, 1, -1, -1, 1, -1, 1, 1, 1, -1, 1, 1, 1, 1, 1, 1, 1, -1, -1, 1, -1, 1, 1, 1, 1, 1, 1, -1, 1, -1, -1, 1, 1, 1, 1, 1, -1, -1, -1, 1, -1, 1, -1, 1, 1, -1, -1, 1, -1, 1, -1, 1, 1, 1, -1, 1, 1, 1, -1, 1, 1, 1, 1, -1, -1, 1, -1, 1, -1, 1, 1, 1, 1, -1, -1, 1, 1, 1, 1, -1, 1, -1, 1, 1, -1, 1, 1, 1, 1, -1, -1, -1, 1, -1, 1, -1, 1, 1, -1, -1, -1, 1, -1, -1, 1, 1, 1, 1, -1, 1, 1, 1, -1, 1, -1, 1, 1, -1, 1, 1, -1, 1, 1, 1, 1, -1, -1, 1, 1, -1, -1, 1, 1, -1, -1, -1, -1, 1, -1, -1, 1, -1, -1, 1, -1, -1, -1, -1, -1, -1, 1, 1, -1, 1, -1, 1, 1, -1, 1, 1, 1, -1, -1, -1, -1, -1, 1, -1, 1, -1, -1, -1, -1, 1, 1, -1, 1, 1, -1, -1, 1, -1, -1, -1, -1, 1, -1, -1, 1, -1, 1, 1, -1, 1, -1, -1, -1, -1, -1, -1, 1, 1, -1, 1, -1, -1, -1, -1, -1, -1, -1, -1, -1, -1, -1, -1, -1, 1, 1, -1, 1, 1, -1, -1, -1, 1, -1, 1, -1, 1, 1, -1, -1, -1, -1, -1, 1, -1, 1, -1, -1, -1, -1, 1, 1, 1, 1, 1, -1, 1, -1, 1, -1, 1, 1, -1, 1, -1, -1, -1, 1, -1, -1, 1, -1, 1, -1, -1, -1, -1, -1, -1, -1, 1, 1, -1, 1, -1, -1, -1, 1, -1, 1, -1, -1, -1, -1, -1, -1, 1, -1, 1, -1, -1, 1, 1, -1, 1, 1, -1, 1, 1, -1, -1, 1, -1, 1, 1, 1, 1, -1, -1, -1, 1, 1, 1, 1, 1, 1, 1, -1, 1, -1, 1, 1, 1, 1, 1, 1, -1, -1, 1, -1, 1, 1, 1, 1, -1, 1, 1, -1, 1, 1, 1, -1, -1, 1, -1, -1, 1, 1, 1, 1, 1, 1, -1, -1, -1, 1, 1, 1, 1, -1, 1, -1, 1, -1, 1, -1, 1, 1, -1, 1, -1, 1, -1, 1, -1, 1, 1, -1, 1, -1, 1, -1, 1, -1, 1, 1, 1, 1, -1, -1, -1, 1, 1, 1, 1, 1, -1, -1, 1, 1, 1, -1, 1, 1, 1, -1, -1, -1, 1, -1, 1, 1, -1, -1, -1, -1, 1, 1, 1, -1, 1, 1, 1, -1, -1, 1, 1, 1, -1, 1, 1, -1, 1, -1, 1, 1, 1, 1, 1, 1, 1, -1, -1, 1, 1, 1, -1, 1, 1, 1, -1, -1, 1, -1, 1, -1, 1, 1, -1, 1, -1, -1, 1, 1, 1, 1, 1, -1, 1, 1, -1, 1, 1, 1, -1, 1, -1, -1, -1, -1, 1, 1, 1, 1, 1, -1, -1, -1, 1, 1, 1, 1, -1, 1, 1, -1, 1, -1, 1, 1, 1, -1, 1, -1, -1, 1, 1, 1, 1, -1, 1, 1, -1, -1, 1, -1, 1, 1, -1, 1, 1, -1, -1, -1, 1, 1, 1, -1, 1, 1, -1, -1, -1, -1, 1, 1, -1, -1, 1, -1, -1, 1, -1, 1, 1, 1, -1, 1, -1, -1, -1, 1, 1, 1, -1, -1, 1, -1, 1, -1, -1, -1, 1, 1, -1, 1, -1, -1, -1, -1, 1, 1, -1, 1, 1, -1, -1, 1, 1, -1, 1, 1, -1, 1, 1, -1, -1, -1, -1, 1, 1, -1, 1, -1, -1, 1, 1, 1, 1, 1, 1, -1, -1, 1, 1, -1, -1, 1, 1, -1, 1
BQP_DATA, 1940, 8688, -4232.000000, -5154.000000, -11694.000000, -12616.000000, 2048.015325, 4822, 1156
